Gurobi Optimizer version 9.1.2 build v9.1.2rc0 (linux64)
Thread count: 36 physical cores, 72 logical processors, using up to 32 threads
Optimize a model with 12 rows, 57 columns and 590 nonzeros
Model fingerprint: 0xf32eec78
Model has 47 quadratic constraints
Coefficient statistics:
  Matrix range     [2e-05, 3e+00]
  QMatrix range    [1e+00, 1e+00]
  QLMatrix range   [1e+00, 1e+00]
  Objective range  [8e-03, 7e-01]
  Bounds range     [1e+00, 1e+00]
  RHS range        [1e+00, 1e+00]
Presolve removed 9 rows and 0 columns

Continuous model is non-convex -- solving as a MIP.

Presolve removed 9 rows and 0 columns
Presolve time: 0.00s
Presolved: 189 rows, 57 columns, 443 nonzeros
Presolved model has 47 bilinear constraint(s)
Variable types: 57 continuous, 0 integer (0 binary)

Root relaxation: objective -1.743721e+00, 44 iterations, 0.00 seconds

    Nodes    |    Current Node    |     Objective Bounds      |     Work
 Expl Unexpl |  Obj  Depth IntInf | Incumbent    BestBd   Gap | It/Node Time

     0     0   -1.74372    0   38          -   -1.74372      -     -    0s
H    0     0                       0.6147548   -1.74372   384%     -    0s
     0     0   -1.64739    0    1    0.61475   -1.64739   368%     -    0s
H    0     0                      -1.6450460   -1.64739  0.14%     -    0s
     0     0     cutoff    0        -1.64505   -1.64505  0.00%     -    0s

Cutting planes:
  RLT: 25
  BQP: 3

Explored 1 nodes (76 simplex iterations) in 0.01 seconds
Thread count was 32 (of 72 available processors)

Solution count 2: -1.64505 0.614755 
No other solutions better than -1.64505

Optimal solution found (tolerance 1.00e-04)
Best objective -1.645045978473e+00, best bound -1.645045978473e+00, gap 0.0000%

User-callback calls 78, time in user-callback 0.00 sec
Gurobi Optimizer version 9.1.2 build v9.1.2rc0 (linux64)
Thread count: 36 physical cores, 72 logical processors, using up to 32 threads
Optimize a model with 24 rows, 125 columns and 2580 nonzeros
Model fingerprint: 0x1b1e4c2e
Model has 105 quadratic constraints
Coefficient statistics:
  Matrix range     [5e-06, 5e+01]
  QMatrix range    [1e+00, 1e+00]
  QLMatrix range   [1e+00, 1e+00]
  Objective range  [1e-02, 1e+00]
  Bounds range     [1e+00, 1e+00]
  RHS range        [1e+00, 1e+00]
Presolve removed 11 rows and 0 columns

Continuous model is non-convex -- solving as a MIP.

Presolve removed 11 rows and 0 columns
Presolve time: 0.00s
Presolved: 428 rows, 125 columns, 2018 nonzeros
Presolved model has 105 bilinear constraint(s)
Variable types: 125 continuous, 0 integer (0 binary)

Root relaxation: objective -5.843812e+00, 133 iterations, 0.00 seconds

    Nodes    |    Current Node    |     Objective Bounds      |     Work
 Expl Unexpl |  Obj  Depth IntInf | Incumbent    BestBd   Gap | It/Node Time

     0     0   -5.84381    0   75          -   -5.84381      -     -    0s
H    0     0                       0.2470277   -5.84381  2466%     -    0s
     0     0   -4.61664    0   83    0.24703   -4.61664  1969%     -    0s
H    0     0                      -1.1704096   -4.61664   294%     -    0s
     0     0   -4.51009    0   88   -1.17041   -4.51009   285%     -    0s
     0     0   -4.31441    0   70   -1.17041   -4.31441   269%     -    0s
H    0     0                      -1.7808541   -4.31441   142%     -    0s
     0     0   -4.29977    0   83   -1.78085   -4.29977   141%     -    0s
     0     0   -4.25892    0   70   -1.78085   -4.25892   139%     -    0s
     0     0   -4.24791    0   61   -1.78085   -4.24791   139%     -    0s
     0     0   -4.23526    0   70   -1.78085   -4.23526   138%     -    0s
H    0     0                      -2.1286408   -4.23526  99.0%     -    0s
     0     0   -4.23393    0   69   -2.12864   -4.23393  98.9%     -    0s
     0     0   -4.22967    0   88   -2.12864   -4.22967  98.7%     -    0s
     0     0   -4.22834    0   88   -2.12864   -4.22834  98.6%     -    0s
     0     0   -4.22623    0   92   -2.12864   -4.22623  98.5%     -    0s
     0     0   -4.22565    0   85   -2.12864   -4.22565  98.5%     -    0s
     0     0   -4.22555    0   93   -2.12864   -4.22555  98.5%     -    0s
H    0     0                      -2.9999675   -4.22555  40.9%     -    0s
H    0     0                      -3.2161385   -4.22555  31.4%     -    0s
     0     2   -4.22555    0   93   -3.21614   -4.22555  31.4%     -    0s
*  674   372              18      -3.2171062   -3.76199  16.9%  28.2    0s
*  686   372              25      -3.3569403   -3.76199  12.1%  27.9    0s
*  775   313              21      -3.3689583   -3.74627  11.2%  25.9    0s
* 1035   387              23      -3.3712721   -3.65671  8.47%  23.2    0s
* 1036   387              23      -3.3713153   -3.65671  8.47%  23.2    0s
* 1127   505              21      -3.4578184   -3.64408  5.39%  22.6    0s
* 1129   505              22      -3.4578754   -3.64408  5.38%  22.5    0s
* 1130   505              22      -3.4578774   -3.64408  5.38%  22.5    0s
* 1497   327              18      -3.4579837   -3.61361  4.50%  18.9    0s
* 1594   328              24      -3.4777139   -3.57851  2.90%  18.2    0s
* 1861   369              28      -3.4815740   -3.57851  2.78%  16.2    0s
* 1883   369              25      -3.4856254   -3.57851  2.66%  16.1    0s
* 1891   369              17      -3.4857086   -3.57851  2.66%  16.0    0s
* 2250   322              21      -3.4859875   -3.53483  1.40%  14.3    0s
* 2251   322              21      -3.4859876   -3.53483  1.40%  14.3    0s
* 2263   322              19      -3.4866097   -3.53483  1.38%  14.2    0s
* 2265   322              20      -3.4866198   -3.53483  1.38%  14.2    0s
* 2266   322              20      -3.4866206   -3.53483  1.38%  14.2    0s
* 2273   322              25      -3.4882663   -3.53483  1.33%  14.2    0s
* 2275   322              26      -3.4882871   -3.53483  1.33%  14.2    0s
* 2276   322              26      -3.4882879   -3.53483  1.33%  14.2    0s
* 2287   322              25      -3.4886632   -3.53483  1.32%  14.1    0s
* 2288   322              25      -3.4886655   -3.53483  1.32%  14.1    0s
* 2294   322              27      -3.4886897   -3.53483  1.32%  14.1    0s
* 2295   322              27      -3.4886920   -3.53483  1.32%  14.1    0s
* 2354   322              29      -3.4887649   -3.53483  1.32%  13.8    0s
* 2367   322              29      -3.4897781   -3.53483  1.29%  13.8    0s
* 2390   322              23      -3.4906487   -3.53483  1.27%  13.7    0s
* 2392   322              24      -3.4907607   -3.53483  1.26%  13.7    0s
* 2621   192              22      -3.4908049   -3.51401  0.66%  12.8    0s
* 2623   192              23      -3.4912709   -3.51401  0.65%  12.8    0s
* 2624   192              23      -3.4912711   -3.51401  0.65%  12.8    0s
* 2628   192              23      -3.4912957   -3.51401  0.65%  12.8    0s
* 2644   192              22      -3.4926178   -3.51401  0.61%  12.8    0s
* 2645   192              22      -3.4926272   -3.51401  0.61%  12.8    0s
* 2647   192              22      -3.4927395   -3.51401  0.61%  12.8    0s
* 2677   192              27      -3.4927571   -3.51401  0.61%  12.6    0s
* 2696   192              23      -3.4929784   -3.51401  0.60%  12.6    0s
* 2706   192              26      -3.4929792   -3.51401  0.60%  12.5    0s
* 3106    40              25      -3.4929842   -3.49643  0.10%  11.3    0s
* 3124    40              19      -3.4931559   -3.49643  0.09%  11.3    0s
* 3125    40              19      -3.4932331   -3.49643  0.09%  11.3    0s
* 3344    17              19      -3.4932967   -3.49413  0.02%  10.7    0s
* 3345    17              19      -3.4933367   -3.49413  0.02%  10.7    0s
* 3369    17              25      -3.4934872   -3.49367  0.01%  10.6    0s
* 3370    17              25      -3.4934892   -3.49367  0.01%  10.6    0s
* 3373    17              25      -3.4934899   -3.49367  0.01%  10.6    0s
* 3374    17              23      -3.4935264   -3.49367  0.00%  10.6    0s
* 3377    17              19      -3.4935402   -3.49367  0.00%  10.6    0s
* 3428    17              24      -3.4935463   -3.49359  0.00%  10.5    0s

Cutting planes:
  RLT: 60
  BQP: 7
  PSD: 35

Explored 3504 nodes (36649 simplex iterations) in 0.69 seconds
Thread count was 32 (of 72 available processors)

Solution count 10: -3.49355 -3.49354 -3.49353 ... -3.49316

Optimal solution found (tolerance 1.00e-04)
Best objective -3.493546330522e+00, best bound -3.493590783614e+00, gap 0.0013%

User-callback calls 7377, time in user-callback 0.00 sec



objective value: -3.4935463305218146
objective bound: -3.4935907836144953
x_opt: [1.0, 0.0, 1.0, 0.0, 0.1955223258746197, 1.5094377690567797e-7, 1.0, 1.0, 0.45756494780965834, 0.0, 0.0, 0.0, 0.7895980104875765, 0.0, 0.45501328343599834, 0.3185863769555557, 0.0, 0.0, 0.0, 0.0]
GUROBI solution time: 0.6942260265350342




